p idrup
i -5 9 0
i 14 16 0
i -3 2 0
i -6 -9 0
i -10 -16 0
i -12 14 0
i 16 5 0
i 1 0
i 8 -4 0
i 15 -2 0
i -8 6 0
i -14 13 0
i 20 3 0
i -23 17 0
i 18 10 0
i 26 4 0
i -26 7 0
i -19 -17 0
i 5 7 0
i 12 -15 -25 0
i 23 -20 0
i 22 -21 -7 0
i -18 24 0
i 21 -11 -13 0
i -24 19 0
q 11 -22 25 0
l 5 -25 -11 22 0
s UNSATISFIABLE
u 25 11 -22 0
